c *********************************
c * Circuit generated by BenCGen
c *
c * RippleCarryAdderSubtractor_40_40_40_OutSunT
c *
c * Ports with 1 gate(s): 2
c * Ports with 2 gate(s): 242
c * Total gates: 244
c *********************************
p cnf 324 851
1 123 0
-1 -123 0
1 -122 0
123 -122 0
-1 -123 122 0
122 124 0
-122 -124 0
41 122 -125 0
-41 122 125 0
41 -122 125 0
-41 -122 -125 0
42 122 -126 0
-42 122 126 0
42 -122 126 0
-42 -122 -126 0
43 122 -127 0
-43 122 127 0
43 -122 127 0
-43 -122 -127 0
44 122 -128 0
-44 122 128 0
44 -122 128 0
-44 -122 -128 0
45 122 -129 0
-45 122 129 0
45 -122 129 0
-45 -122 -129 0
46 122 -130 0
-46 122 130 0
46 -122 130 0
-46 -122 -130 0
47 122 -131 0
-47 122 131 0
47 -122 131 0
-47 -122 -131 0
48 122 -132 0
-48 122 132 0
48 -122 132 0
-48 -122 -132 0
49 122 -133 0
-49 122 133 0
49 -122 133 0
-49 -122 -133 0
50 122 -134 0
-50 122 134 0
50 -122 134 0
-50 -122 -134 0
51 122 -135 0
-51 122 135 0
51 -122 135 0
-51 -122 -135 0
52 122 -136 0
-52 122 136 0
52 -122 136 0
-52 -122 -136 0
53 122 -137 0
-53 122 137 0
53 -122 137 0
-53 -122 -137 0
54 122 -138 0
-54 122 138 0
54 -122 138 0
-54 -122 -138 0
55 122 -139 0
-55 122 139 0
55 -122 139 0
-55 -122 -139 0
56 122 -140 0
-56 122 140 0
56 -122 140 0
-56 -122 -140 0
57 122 -141 0
-57 122 141 0
57 -122 141 0
-57 -122 -141 0
58 122 -142 0
-58 122 142 0
58 -122 142 0
-58 -122 -142 0
59 122 -143 0
-59 122 143 0
59 -122 143 0
-59 -122 -143 0
60 122 -144 0
-60 122 144 0
60 -122 144 0
-60 -122 -144 0
61 122 -145 0
-61 122 145 0
61 -122 145 0
-61 -122 -145 0
62 122 -146 0
-62 122 146 0
62 -122 146 0
-62 -122 -146 0
63 122 -147 0
-63 122 147 0
63 -122 147 0
-63 -122 -147 0
64 122 -148 0
-64 122 148 0
64 -122 148 0
-64 -122 -148 0
65 122 -149 0
-65 122 149 0
65 -122 149 0
-65 -122 -149 0
66 122 -150 0
-66 122 150 0
66 -122 150 0
-66 -122 -150 0
67 122 -151 0
-67 122 151 0
67 -122 151 0
-67 -122 -151 0
68 122 -152 0
-68 122 152 0
68 -122 152 0
-68 -122 -152 0
69 122 -153 0
-69 122 153 0
69 -122 153 0
-69 -122 -153 0
70 122 -154 0
-70 122 154 0
70 -122 154 0
-70 -122 -154 0
71 122 -155 0
-71 122 155 0
71 -122 155 0
-71 -122 -155 0
72 122 -156 0
-72 122 156 0
72 -122 156 0
-72 -122 -156 0
73 122 -157 0
-73 122 157 0
73 -122 157 0
-73 -122 -157 0
74 122 -158 0
-74 122 158 0
74 -122 158 0
-74 -122 -158 0
75 122 -159 0
-75 122 159 0
75 -122 159 0
-75 -122 -159 0
76 122 -160 0
-76 122 160 0
76 -122 160 0
-76 -122 -160 0
77 122 -161 0
-77 122 161 0
77 -122 161 0
-77 -122 -161 0
78 122 -162 0
-78 122 162 0
78 -122 162 0
-78 -122 -162 0
79 122 -163 0
-79 122 163 0
79 -122 163 0
-79 -122 -163 0
80 122 -164 0
-80 122 164 0
80 -122 164 0
-80 -122 -164 0
1 125 -166 0
-1 125 166 0
1 -125 166 0
-1 -125 -166 0
166 122 -81 0
-166 122 81 0
166 -122 81 0
-166 -122 -81 0
122 -167 0
166 -167 0
-122 -166 167 0
125 -168 0
1 -168 0
-125 -1 168 0
-167 165 0
-168 165 0
167 168 -165 0
2 126 -170 0
-2 126 170 0
2 -126 170 0
-2 -126 -170 0
170 165 -82 0
-170 165 82 0
170 -165 82 0
-170 -165 -82 0
165 -171 0
170 -171 0
-165 -170 171 0
126 -172 0
2 -172 0
-126 -2 172 0
-171 169 0
-172 169 0
171 172 -169 0
3 127 -174 0
-3 127 174 0
3 -127 174 0
-3 -127 -174 0
174 169 -83 0
-174 169 83 0
174 -169 83 0
-174 -169 -83 0
169 -175 0
174 -175 0
-169 -174 175 0
127 -176 0
3 -176 0
-127 -3 176 0
-175 173 0
-176 173 0
175 176 -173 0
4 128 -178 0
-4 128 178 0
4 -128 178 0
-4 -128 -178 0
178 173 -84 0
-178 173 84 0
178 -173 84 0
-178 -173 -84 0
173 -179 0
178 -179 0
-173 -178 179 0
128 -180 0
4 -180 0
-128 -4 180 0
-179 177 0
-180 177 0
179 180 -177 0
5 129 -182 0
-5 129 182 0
5 -129 182 0
-5 -129 -182 0
182 177 -85 0
-182 177 85 0
182 -177 85 0
-182 -177 -85 0
177 -183 0
182 -183 0
-177 -182 183 0
129 -184 0
5 -184 0
-129 -5 184 0
-183 181 0
-184 181 0
183 184 -181 0
6 130 -186 0
-6 130 186 0
6 -130 186 0
-6 -130 -186 0
186 181 -86 0
-186 181 86 0
186 -181 86 0
-186 -181 -86 0
181 -187 0
186 -187 0
-181 -186 187 0
130 -188 0
6 -188 0
-130 -6 188 0
-187 185 0
-188 185 0
187 188 -185 0
7 131 -190 0
-7 131 190 0
7 -131 190 0
-7 -131 -190 0
190 185 -87 0
-190 185 87 0
190 -185 87 0
-190 -185 -87 0
185 -191 0
190 -191 0
-185 -190 191 0
131 -192 0
7 -192 0
-131 -7 192 0
-191 189 0
-192 189 0
191 192 -189 0
8 132 -194 0
-8 132 194 0
8 -132 194 0
-8 -132 -194 0
194 189 -88 0
-194 189 88 0
194 -189 88 0
-194 -189 -88 0
189 -195 0
194 -195 0
-189 -194 195 0
132 -196 0
8 -196 0
-132 -8 196 0
-195 193 0
-196 193 0
195 196 -193 0
9 133 -198 0
-9 133 198 0
9 -133 198 0
-9 -133 -198 0
198 193 -89 0
-198 193 89 0
198 -193 89 0
-198 -193 -89 0
193 -199 0
198 -199 0
-193 -198 199 0
133 -200 0
9 -200 0
-133 -9 200 0
-199 197 0
-200 197 0
199 200 -197 0
10 134 -202 0
-10 134 202 0
10 -134 202 0
-10 -134 -202 0
202 197 -90 0
-202 197 90 0
202 -197 90 0
-202 -197 -90 0
197 -203 0
202 -203 0
-197 -202 203 0
134 -204 0
10 -204 0
-134 -10 204 0
-203 201 0
-204 201 0
203 204 -201 0
11 135 -206 0
-11 135 206 0
11 -135 206 0
-11 -135 -206 0
206 201 -91 0
-206 201 91 0
206 -201 91 0
-206 -201 -91 0
201 -207 0
206 -207 0
-201 -206 207 0
135 -208 0
11 -208 0
-135 -11 208 0
-207 205 0
-208 205 0
207 208 -205 0
12 136 -210 0
-12 136 210 0
12 -136 210 0
-12 -136 -210 0
210 205 -92 0
-210 205 92 0
210 -205 92 0
-210 -205 -92 0
205 -211 0
210 -211 0
-205 -210 211 0
136 -212 0
12 -212 0
-136 -12 212 0
-211 209 0
-212 209 0
211 212 -209 0
13 137 -214 0
-13 137 214 0
13 -137 214 0
-13 -137 -214 0
214 209 -93 0
-214 209 93 0
214 -209 93 0
-214 -209 -93 0
209 -215 0
214 -215 0
-209 -214 215 0
137 -216 0
13 -216 0
-137 -13 216 0
-215 213 0
-216 213 0
215 216 -213 0
14 138 -218 0
-14 138 218 0
14 -138 218 0
-14 -138 -218 0
218 213 -94 0
-218 213 94 0
218 -213 94 0
-218 -213 -94 0
213 -219 0
218 -219 0
-213 -218 219 0
138 -220 0
14 -220 0
-138 -14 220 0
-219 217 0
-220 217 0
219 220 -217 0
15 139 -222 0
-15 139 222 0
15 -139 222 0
-15 -139 -222 0
222 217 -95 0
-222 217 95 0
222 -217 95 0
-222 -217 -95 0
217 -223 0
222 -223 0
-217 -222 223 0
139 -224 0
15 -224 0
-139 -15 224 0
-223 221 0
-224 221 0
223 224 -221 0
16 140 -226 0
-16 140 226 0
16 -140 226 0
-16 -140 -226 0
226 221 -96 0
-226 221 96 0
226 -221 96 0
-226 -221 -96 0
221 -227 0
226 -227 0
-221 -226 227 0
140 -228 0
16 -228 0
-140 -16 228 0
-227 225 0
-228 225 0
227 228 -225 0
17 141 -230 0
-17 141 230 0
17 -141 230 0
-17 -141 -230 0
230 225 -97 0
-230 225 97 0
230 -225 97 0
-230 -225 -97 0
225 -231 0
230 -231 0
-225 -230 231 0
141 -232 0
17 -232 0
-141 -17 232 0
-231 229 0
-232 229 0
231 232 -229 0
18 142 -234 0
-18 142 234 0
18 -142 234 0
-18 -142 -234 0
234 229 -98 0
-234 229 98 0
234 -229 98 0
-234 -229 -98 0
229 -235 0
234 -235 0
-229 -234 235 0
142 -236 0
18 -236 0
-142 -18 236 0
-235 233 0
-236 233 0
235 236 -233 0
19 143 -238 0
-19 143 238 0
19 -143 238 0
-19 -143 -238 0
238 233 -99 0
-238 233 99 0
238 -233 99 0
-238 -233 -99 0
233 -239 0
238 -239 0
-233 -238 239 0
143 -240 0
19 -240 0
-143 -19 240 0
-239 237 0
-240 237 0
239 240 -237 0
20 144 -242 0
-20 144 242 0
20 -144 242 0
-20 -144 -242 0
242 237 -100 0
-242 237 100 0
242 -237 100 0
-242 -237 -100 0
237 -243 0
242 -243 0
-237 -242 243 0
144 -244 0
20 -244 0
-144 -20 244 0
-243 241 0
-244 241 0
243 244 -241 0
21 145 -246 0
-21 145 246 0
21 -145 246 0
-21 -145 -246 0
246 241 -101 0
-246 241 101 0
246 -241 101 0
-246 -241 -101 0
241 -247 0
246 -247 0
-241 -246 247 0
145 -248 0
21 -248 0
-145 -21 248 0
-247 245 0
-248 245 0
247 248 -245 0
22 146 -250 0
-22 146 250 0
22 -146 250 0
-22 -146 -250 0
250 245 -102 0
-250 245 102 0
250 -245 102 0
-250 -245 -102 0
245 -251 0
250 -251 0
-245 -250 251 0
146 -252 0
22 -252 0
-146 -22 252 0
-251 249 0
-252 249 0
251 252 -249 0
23 147 -254 0
-23 147 254 0
23 -147 254 0
-23 -147 -254 0
254 249 -103 0
-254 249 103 0
254 -249 103 0
-254 -249 -103 0
249 -255 0
254 -255 0
-249 -254 255 0
147 -256 0
23 -256 0
-147 -23 256 0
-255 253 0
-256 253 0
255 256 -253 0
24 148 -258 0
-24 148 258 0
24 -148 258 0
-24 -148 -258 0
258 253 -104 0
-258 253 104 0
258 -253 104 0
-258 -253 -104 0
253 -259 0
258 -259 0
-253 -258 259 0
148 -260 0
24 -260 0
-148 -24 260 0
-259 257 0
-260 257 0
259 260 -257 0
25 149 -262 0
-25 149 262 0
25 -149 262 0
-25 -149 -262 0
262 257 -105 0
-262 257 105 0
262 -257 105 0
-262 -257 -105 0
257 -263 0
262 -263 0
-257 -262 263 0
149 -264 0
25 -264 0
-149 -25 264 0
-263 261 0
-264 261 0
263 264 -261 0
26 150 -266 0
-26 150 266 0
26 -150 266 0
-26 -150 -266 0
266 261 -106 0
-266 261 106 0
266 -261 106 0
-266 -261 -106 0
261 -267 0
266 -267 0
-261 -266 267 0
150 -268 0
26 -268 0
-150 -26 268 0
-267 265 0
-268 265 0
267 268 -265 0
27 151 -270 0
-27 151 270 0
27 -151 270 0
-27 -151 -270 0
270 265 -107 0
-270 265 107 0
270 -265 107 0
-270 -265 -107 0
265 -271 0
270 -271 0
-265 -270 271 0
151 -272 0
27 -272 0
-151 -27 272 0
-271 269 0
-272 269 0
271 272 -269 0
28 152 -274 0
-28 152 274 0
28 -152 274 0
-28 -152 -274 0
274 269 -108 0
-274 269 108 0
274 -269 108 0
-274 -269 -108 0
269 -275 0
274 -275 0
-269 -274 275 0
152 -276 0
28 -276 0
-152 -28 276 0
-275 273 0
-276 273 0
275 276 -273 0
29 153 -278 0
-29 153 278 0
29 -153 278 0
-29 -153 -278 0
278 273 -109 0
-278 273 109 0
278 -273 109 0
-278 -273 -109 0
273 -279 0
278 -279 0
-273 -278 279 0
153 -280 0
29 -280 0
-153 -29 280 0
-279 277 0
-280 277 0
279 280 -277 0
30 154 -282 0
-30 154 282 0
30 -154 282 0
-30 -154 -282 0
282 277 -110 0
-282 277 110 0
282 -277 110 0
-282 -277 -110 0
277 -283 0
282 -283 0
-277 -282 283 0
154 -284 0
30 -284 0
-154 -30 284 0
-283 281 0
-284 281 0
283 284 -281 0
31 155 -286 0
-31 155 286 0
31 -155 286 0
-31 -155 -286 0
286 281 -111 0
-286 281 111 0
286 -281 111 0
-286 -281 -111 0
281 -287 0
286 -287 0
-281 -286 287 0
155 -288 0
31 -288 0
-155 -31 288 0
-287 285 0
-288 285 0
287 288 -285 0
32 156 -290 0
-32 156 290 0
32 -156 290 0
-32 -156 -290 0
290 285 -112 0
-290 285 112 0
290 -285 112 0
-290 -285 -112 0
285 -291 0
290 -291 0
-285 -290 291 0
156 -292 0
32 -292 0
-156 -32 292 0
-291 289 0
-292 289 0
291 292 -289 0
33 157 -294 0
-33 157 294 0
33 -157 294 0
-33 -157 -294 0
294 289 -113 0
-294 289 113 0
294 -289 113 0
-294 -289 -113 0
289 -295 0
294 -295 0
-289 -294 295 0
157 -296 0
33 -296 0
-157 -33 296 0
-295 293 0
-296 293 0
295 296 -293 0
34 158 -298 0
-34 158 298 0
34 -158 298 0
-34 -158 -298 0
298 293 -114 0
-298 293 114 0
298 -293 114 0
-298 -293 -114 0
293 -299 0
298 -299 0
-293 -298 299 0
158 -300 0
34 -300 0
-158 -34 300 0
-299 297 0
-300 297 0
299 300 -297 0
35 159 -302 0
-35 159 302 0
35 -159 302 0
-35 -159 -302 0
302 297 -115 0
-302 297 115 0
302 -297 115 0
-302 -297 -115 0
297 -303 0
302 -303 0
-297 -302 303 0
159 -304 0
35 -304 0
-159 -35 304 0
-303 301 0
-304 301 0
303 304 -301 0
36 160 -306 0
-36 160 306 0
36 -160 306 0
-36 -160 -306 0
306 301 -116 0
-306 301 116 0
306 -301 116 0
-306 -301 -116 0
301 -307 0
306 -307 0
-301 -306 307 0
160 -308 0
36 -308 0
-160 -36 308 0
-307 305 0
-308 305 0
307 308 -305 0
37 161 -310 0
-37 161 310 0
37 -161 310 0
-37 -161 -310 0
310 305 -117 0
-310 305 117 0
310 -305 117 0
-310 -305 -117 0
305 -311 0
310 -311 0
-305 -310 311 0
161 -312 0
37 -312 0
-161 -37 312 0
-311 309 0
-312 309 0
311 312 -309 0
38 162 -314 0
-38 162 314 0
38 -162 314 0
-38 -162 -314 0
314 309 -118 0
-314 309 118 0
314 -309 118 0
-314 -309 -118 0
309 -315 0
314 -315 0
-309 -314 315 0
162 -316 0
38 -316 0
-162 -38 316 0
-315 313 0
-316 313 0
315 316 -313 0
39 163 -318 0
-39 163 318 0
39 -163 318 0
-39 -163 -318 0
318 313 -119 0
-318 313 119 0
318 -313 119 0
-318 -313 -119 0
313 -319 0
318 -319 0
-313 -318 319 0
163 -320 0
39 -320 0
-163 -39 320 0
-319 317 0
-320 317 0
319 320 -317 0
40 164 -322 0
-40 164 322 0
40 -164 322 0
-40 -164 -322 0
322 317 -120 0
-322 317 120 0
322 -317 120 0
-322 -317 -120 0
317 -323 0
322 -323 0
-317 -322 323 0
164 -324 0
40 -324 0
-164 -40 324 0
-323 321 0
-324 321 0
323 324 -321 0
321 122 -121 0
-321 122 121 0
321 -122 121 0
-321 -122 -121 0
